%nprocshared=28
%mem=58GB
%chk=Ph2.chk
# opt freq b3lyp/6-31g pop=full gfinput iop(3/33=1)

Title Card Required

0 1
 C                  0.00000000    2.43383600    0.70837000
 C                  0.00000000    1.24491200    1.40239300
 C                  0.00000000    0.00000000    0.71716000
 C                  0.00000000    0.00000000   -0.71716000
 C                  0.00000000    1.24491200   -1.40239300
 C                  0.00000000    2.43383600   -0.70837000
 H                  0.00000000   -1.24260000    2.49015600
 H                  0.00000000    3.37824900    1.24618300
 H                  0.00000000    1.24260000    2.49015600
 C                  0.00000000   -1.24491200    1.40239300
 C                  0.00000000   -1.24491200   -1.40239300
 H                  0.00000000    1.24260000   -2.49015600
 H                  0.00000000    3.37824900   -1.24618300
 C                  0.00000000   -2.43383600   -0.70837000
 C                  0.00000000   -2.43383600    0.70837000
 H                  0.00000000   -1.24260000   -2.49015600
 H                  0.00000000   -3.37824900   -1.24618300
 H                  0.00000000   -3.37824900    1.24618300

